Solver command line: ['C:\\Program Files\\gurobi1102\\win64\\bin\\gurobi.bat']

Set parameter Username
Academic license - for non-commercial use only - expires 2025-07-11
Read LP format model from file C:\Users\PAULWI~1\AppData\Local\Temp\tmpjzc9k9qg.pyomo.lp
Reading time = 4.23 seconds
objective: 562177 rows, 509471 columns, 1308802 nonzeros
Set parameter TimeLimit to value 40
Set parameter MIPGap to value 0.01
Gurobi Optimizer version 11.0.2 build v11.0.2rc0 (win64 - Windows 10.0 (19045.2))

CPU model: Intel(R) Xeon(R) CPU E5-1607 v2 @ 3.00GHz, instruction set [SSE2|AVX]
Thread count: 4 physical cores, 4 logical processors, using up to 4 threads

Optimize a model with 562177 rows, 509471 columns and 1308802 nonzeros
Model fingerprint: 0x699f48ae
Model has 8783 quadratic constraints
Variable types: 430416 continuous, 79055 integer (61488 binary)
Coefficient statistics:
  Matrix range     [6e-03, 2e+02]
  QMatrix range    [1e+00, 1e+00]
  Objective range  [1e-02, 4e+02]
  Bounds range     [1e+00, 3e+00]
  RHS range        [1e-03, 1e+04]
Presolve removed 447997 rows and 386506 columns
Presolve time: 2.26s
Presolved: 114180 rows, 122965 columns, 324973 nonzeros
Variable types: 70266 continuous, 52699 integer (52699 binary)
Deterministic concurrent LP optimizer: primal and dual simplex
Showing primal log only...


Root simplex log...

Iteration    Objective       Primal Inf.    Dual Inf.      Time
       0    1.2618501e+07   7.120043e+02   3.159330e+08     15s
     341    1.2659642e+07   0.000000e+00   1.783862e+06     15s
   14117   -4.5934775e+06   0.000000e+00   0.000000e+00     16s
Concurrent spin time: 4.29s (can be avoided by choosing Method=3)

Solved with primal simplex
   14584   -4.5934775e+06   0.000000e+00   0.000000e+00     20s
Extra simplex iterations after uncrush: 467

Use crossover to convert LP symmetric solution to basic solution...

Root crossover log...

       0 DPushes remaining with DInf 0.0000000e+00                20s

     844 PPushes remaining with PInf 0.0000000e+00                20s
       0 PPushes remaining with PInf 0.0000000e+00                20s

  Push phase complete: Pinf 0.0000000e+00, Dinf 4.3010857e-10     20s


Root simplex log...

Iteration    Objective       Primal Inf.    Dual Inf.      Time
   15431   -4.5934775e+06   0.000000e+00   0.000000e+00     20s
   15431   -4.5934775e+06   0.000000e+00   0.000000e+00     20s

Root relaxation: objective -4.593478e+06, 15431 iterations, 6.01 seconds (1.18 work units)
Total elapsed time = 20.38s (DegenMoves)

    Nodes    |    Current Node    |     Objective Bounds      |     Work
 Expl Unexpl |  Obj  Depth IntInf | Incumbent    BestBd   Gap | It/Node Time

     0     0 -4593477.5    0  417          - -4593477.5      -     -   24s
H    0     0                    -4238757.938 -4593477.5  8.37%     -   26s
     0     0 -4574845.9    0  563 -4238757.9 -4574845.9  7.93%     -   28s
H    0     0                    -4333513.615 -4574845.9  5.57%     -   29s
H    0     0                    -4341744.854 -4573533.4  5.34%     -   30s
     0     0 -4573533.1    0  540 -4341744.9 -4573533.1  5.34%     -   30s
     0     0 -4573525.8    0  545 -4341744.9 -4573525.8  5.34%     -   30s
     0     0 -4573525.8    0  545 -4341744.9 -4573525.8  5.34%     -   30s
     0     0 -4569888.6    0  576 -4341744.9 -4569888.6  5.25%     -   32s
H    0     0                    -4347668.454 -4569842.2  5.11%     -   33s
H    0     0                    -4347682.775 -4569842.2  5.11%     -   33s
     0     0 -4568684.9    0  540 -4347682.8 -4568684.9  5.08%     -   34s
     0     0 -4568638.6    0  541 -4347682.8 -4568638.6  5.08%     -   34s
     0     0 -4568638.6    0  541 -4347682.8 -4568638.6  5.08%     -   34s
     0     0 -4568274.5    0  636 -4347682.8 -4568274.5  5.07%     -   35s
     0     0 -4568172.2    0  661 -4347682.8 -4568172.2  5.07%     -   37s
     0     0 -4568156.0    0  657 -4347682.8 -4568156.0  5.07%     -   38s
     0     0 -4568155.5    0  658 -4347682.8 -4568155.5  5.07%     -   38s
     0     0 -4567351.4    0  664 -4347682.8 -4567351.4  5.05%     -   38s
     0     0 -4567187.0    0  658 -4347682.8 -4567187.0  5.05%     -   39s

Cutting planes:
  Gomory: 223
  Lift-and-project: 6
  Cover: 273
  Implied bound: 131
  MIR: 494
  Flow cover: 321
  RLT: 35
  Relax-and-lift: 82

Explored 1 nodes (35381 simplex iterations) in 40.19 seconds (11.20 work units)
Thread count was 4 (of 4 available processors)

Solution count 5: -4.34768e+06 -4.34767e+06 -4.34174e+06 ... -4.23876e+06

Time limit reached
Best objective -4.347682775200e+06, best bound -4.567186977812e+06, gap 5.0488%

